(set-logic QF_UF)
(declare-fun A0 () Bool)
(declare-fun A1 () Bool)
(declare-fun A2 () Bool)
(declare-fun A3 () Bool)
(declare-fun A4 () Bool)
(declare-fun A5 () Bool)
(declare-fun A6 () Bool)
(declare-fun A7 () Bool)
(declare-fun A8 () Bool)
(declare-fun A9 () Bool)
(declare-fun A10 () Bool)
(declare-fun A11 () Bool)
(declare-fun A12 () Bool)
(declare-fun A13 () Bool)
(declare-fun A14 () Bool)
(declare-fun A15 () Bool)
(declare-fun A16 () Bool)
(declare-fun A17 () Bool)
(declare-fun A18 () Bool)
(declare-fun A19 () Bool)
(declare-fun A20 () Bool)
(declare-fun A21 () Bool)
(declare-fun A22 () Bool)
(declare-fun A23 () Bool)
(declare-fun A24 () Bool)
(assert (let ((.def_0 (not A0))) (let ((.def_1 (and .def_0 A24))) (let ((.def_2 (or A18 A8))) (let ((.def_3 (not .def_2))) (let ((.def_4 (or .def_3 .def_1))) (let ((.def_5 (not .def_4))) (let ((.def_6 (= A5 A8))) (let ((.def_7 (not .def_6))) (let ((.def_8 (not A6))) (let ((.def_9 (not A21))) (let ((.def_10 (or .def_9 .def_8))) (let ((.def_11 (and .def_10 .def_7))) (let ((.def_12 (= .def_11 .def_5))) (let ((.def_13 (not A18))) (let ((.def_14 (and .def_8 .def_13))) (let ((.def_15 (not A17))) (let ((.def_16 (and A0 .def_15))) (let ((.def_17 (or .def_16 .def_14))) (let ((.def_18 (or A24 .def_13))) (let ((.def_19 (and A6 A24))) (let ((.def_20 (and .def_19 .def_18))) (let ((.def_21 (= .def_20 .def_17))) (let ((.def_22 (not .def_21))) (let ((.def_23 (and .def_22 .def_12))) (let ((.def_24 (not .def_23))) (let ((.def_25 (not A3))) (let ((.def_26 (and .def_25 A21))) (let ((.def_27 (not A5))) (let ((.def_28 (or .def_27 .def_8))) (let ((.def_29 (not .def_28))) (let ((.def_30 (and .def_29 .def_26))) (let ((.def_31 (not .def_30))) (let ((.def_32 (not A23))) (let ((.def_33 (or A10 .def_32))) (let ((.def_34 (not .def_33))) (let ((.def_35 (not A15))) (let ((.def_36 (and .def_35 A23))) (let ((.def_37 (not .def_36))) (let ((.def_38 (or .def_37 .def_34))) (let ((.def_39 (and .def_38 .def_31))) (let ((.def_40 (not .def_39))) (let ((.def_41 (not A1))) (let ((.def_42 (and A20 .def_41))) (let ((.def_43 (not A13))) (let ((.def_44 (and .def_43 A21))) (let ((.def_45 (and .def_44 .def_42))) (let ((.def_46 (not .def_45))) (let ((.def_47 (or .def_41 A12))) (let ((.def_48 (not .def_47))) (let ((.def_49 (or A11 .def_0))) (let ((.def_50 (not .def_49))) (let ((.def_51 (or .def_50 .def_48))) (let ((.def_52 (or .def_51 .def_46))) (let ((.def_53 (and .def_52 .def_40))) (let ((.def_54 (and .def_53 .def_24))) (let ((.def_55 (not .def_54))) (let ((.def_56 (and A23 A16))) (let ((.def_57 (and A19 A11))) (let ((.def_58 (or .def_57 .def_56))) (let ((.def_59 (not A24))) (let ((.def_60 (not A4))) (let ((.def_61 (and .def_60 .def_59))) (let ((.def_62 (not A12))) (let ((.def_63 (not A10))) (let ((.def_64 (or .def_63 .def_62))) (let ((.def_65 (and .def_64 .def_61))) (let ((.def_66 (or .def_65 .def_58))) (let ((.def_67 (not .def_66))) (let ((.def_68 (= .def_43 A8))) (let ((.def_69 (or A8 A15))) (let ((.def_70 (not .def_69))) (let ((.def_71 (and .def_70 .def_68))) (let ((.def_72 (not .def_71))) (let ((.def_73 (or .def_25 A5))) (let ((.def_74 (not .def_73))) (let ((.def_75 (and .def_15 A16))) (let ((.def_76 (and .def_75 .def_74))) (let ((.def_77 (not .def_76))) (let ((.def_78 (and .def_77 .def_72))) (let ((.def_79 (and .def_78 .def_67))) (let ((.def_80 (not .def_79))) (let ((.def_81 (= .def_25 .def_8))) (let ((.def_82 (not .def_81))) (let ((.def_83 (or .def_41 .def_25))) (let ((.def_84 (and .def_83 .def_82))) (let ((.def_85 (not .def_84))) (let ((.def_86 (and A4 A14))) (let ((.def_87 (and A16 A6))) (let ((.def_88 (not .def_87))) (let ((.def_89 (or .def_88 .def_86))) (let ((.def_90 (or .def_89 .def_85))) (let ((.def_91 (not .def_90))) (let ((.def_92 (or A9 A8))) (let ((.def_93 (not .def_92))) (let ((.def_94 (or .def_63 A4))) (let ((.def_95 (not .def_94))) (let ((.def_96 (or .def_95 .def_93))) (let ((.def_97 (not .def_96))) (let ((.def_98 (not A20))) (let ((.def_99 (or .def_98 .def_98))) (let ((.def_100 (or .def_35 A1))) (let ((.def_101 (not .def_100))) (let ((.def_102 (or .def_101 .def_99))) (let ((.def_103 (or .def_102 .def_97))) (let ((.def_104 (not .def_103))) (let ((.def_105 (or .def_104 .def_91))) (let ((.def_106 (or .def_105 .def_80))) (let ((.def_107 (not .def_106))) (let ((.def_108 (and .def_107 .def_55))) (let ((.def_109 (not .def_108))) (let ((.def_110 (and .def_62 A2))) (let ((.def_111 (or A12 A12))) (let ((.def_112 (not .def_111))) (let ((.def_113 (and .def_112 .def_110))) (let ((.def_114 (not .def_113))) (let ((.def_115 (or A7 .def_43))) (let ((.def_116 (not A14))) (let ((.def_117 (or A10 .def_116))) (let ((.def_118 (not .def_117))) (let ((.def_119 (and .def_118 .def_115))) (let ((.def_120 (and .def_119 .def_114))) (let ((.def_121 (not A8))) (let ((.def_122 (and .def_121 .def_27))) (let ((.def_123 (and A8 .def_63))) (let ((.def_124 (not .def_123))) (let ((.def_125 (and .def_124 .def_122))) (let ((.def_126 (not .def_125))) (let ((.def_127 (or A19 A17))) (let ((.def_128 (and .def_59 A19))) (let ((.def_129 (= .def_128 .def_127))) (let ((.def_130 (not .def_129))) (let ((.def_131 (or .def_130 .def_126))) (let ((.def_132 (not .def_131))) (let ((.def_133 (or .def_132 .def_120))) (let ((.def_134 (or A4 .def_59))) (let ((.def_135 (not .def_134))) (let ((.def_136 (and .def_63 A11))) (let ((.def_137 (not .def_136))) (let ((.def_138 (or .def_137 .def_135))) (let ((.def_139 (or A15 A19))) (let ((.def_140 (and A11 A0))) (let ((.def_141 (and .def_140 .def_139))) (let ((.def_142 (not .def_141))) (let ((.def_143 (or .def_142 .def_138))) (let ((.def_144 (not A2))) (let ((.def_145 (not A9))) (let ((.def_146 (or .def_145 .def_144))) (let ((.def_147 (not .def_146))) (let ((.def_148 (or A19 A0))) (let ((.def_149 (not .def_148))) (let ((.def_150 (and .def_149 .def_147))) (let ((.def_151 (or .def_62 A11))) (let ((.def_152 (and .def_27 A24))) (let ((.def_153 (not .def_152))) (let ((.def_154 (and .def_153 .def_151))) (let ((.def_155 (not .def_154))) (let ((.def_156 (and .def_155 .def_150))) (let ((.def_157 (not .def_156))) (let ((.def_158 (or .def_157 .def_143))) (let ((.def_159 (not .def_158))) (let ((.def_160 (or .def_159 .def_133))) (let ((.def_161 (not .def_160))) (let ((.def_162 (or A8 A17))) (let ((.def_163 (not .def_162))) (let ((.def_164 (= A17 A11))) (let ((.def_165 (and .def_164 .def_163))) (let ((.def_166 (or A21 A0))) (let ((.def_167 (not .def_166))) (let ((.def_168 (or .def_9 A19))) (let ((.def_169 (not .def_168))) (let ((.def_170 (= .def_169 .def_167))) (let ((.def_171 (and .def_170 .def_165))) (let ((.def_172 (and .def_15 A23))) (let ((.def_173 (not .def_172))) (let ((.def_174 (and A9 .def_0))) (let ((.def_175 (and .def_174 .def_173))) (let ((.def_176 (or .def_25 A9))) (let ((.def_177 (not .def_176))) (let ((.def_178 (and A18 .def_62))) (let ((.def_179 (not .def_178))) (let ((.def_180 (and .def_179 .def_177))) (let ((.def_181 (not .def_180))) (let ((.def_182 (or .def_181 .def_175))) (let ((.def_183 (and .def_182 .def_171))) (let ((.def_184 (= .def_62 A1))) (let ((.def_185 (and .def_0 .def_60))) (let ((.def_186 (or .def_185 .def_184))) (let ((.def_187 (or .def_0 A8))) (let ((.def_188 (and A1 A11))) (let ((.def_189 (not .def_188))) (let ((.def_190 (and .def_189 .def_187))) (let ((.def_191 (not .def_190))) (let ((.def_192 (or .def_191 .def_186))) (let ((.def_193 (not .def_192))) (let ((.def_194 (not A7))) (let ((.def_195 (and .def_194 .def_121))) (let ((.def_196 (and A13 A4))) (let ((.def_197 (not .def_196))) (let ((.def_198 (and .def_197 .def_195))) (let ((.def_199 (or A20 A1))) (let ((.def_200 (not .def_199))) (let ((.def_201 (or .def_60 .def_59))) (let ((.def_202 (= .def_201 .def_200))) (let ((.def_203 (not .def_202))) (let ((.def_204 (or .def_203 .def_198))) (let ((.def_205 (not .def_204))) (let ((.def_206 (or .def_205 .def_193))) (let ((.def_207 (not .def_206))) (let ((.def_208 (or .def_207 .def_183))) (let ((.def_209 (and .def_208 .def_161))) (let ((.def_210 (not .def_209))) (let ((.def_211 (or .def_210 .def_109))) (let ((.def_212 (or .def_41 .def_144))) (let ((.def_213 (not A19))) (let ((.def_214 (or A1 .def_213))) (let ((.def_215 (and .def_214 .def_212))) (let ((.def_216 (not .def_215))) (let ((.def_217 (and A12 A18))) (let ((.def_218 (or A15 A17))) (let ((.def_219 (= .def_218 .def_217))) (let ((.def_220 (not .def_219))) (let ((.def_221 (or .def_220 .def_216))) (let ((.def_222 (not .def_221))) (let ((.def_223 (not A16))) (let ((.def_224 (or .def_41 .def_223))) (let ((.def_225 (and A11 A9))) (let ((.def_226 (not .def_225))) (let ((.def_227 (or .def_226 .def_224))) (let ((.def_228 (= A6 A10))) (let ((.def_229 (not .def_228))) (let ((.def_230 (or .def_15 A22))) (let ((.def_231 (or .def_230 .def_229))) (let ((.def_232 (or .def_231 .def_227))) (let ((.def_233 (not .def_232))) (let ((.def_234 (or .def_233 .def_222))) (let ((.def_235 (or A8 .def_116))) (let ((.def_236 (not .def_235))) (let ((.def_237 (and .def_194 .def_98))) (let ((.def_238 (and .def_237 .def_236))) (let ((.def_239 (not .def_238))) (let ((.def_240 (or A9 A16))) (let ((.def_241 (not .def_240))) (let ((.def_242 (not A22))) (let ((.def_243 (or .def_35 .def_242))) (let ((.def_244 (not .def_243))) (let ((.def_245 (and .def_244 .def_241))) (let ((.def_246 (or .def_245 .def_239))) (let ((.def_247 (or A8 .def_43))) (let ((.def_248 (not .def_247))) (let ((.def_249 (and .def_13 .def_213))) (let ((.def_250 (not .def_249))) (let ((.def_251 (and .def_250 .def_248))) (let ((.def_252 (not .def_251))) (let ((.def_253 (or A13 .def_9))) (let ((.def_254 (not A11))) (let ((.def_255 (or .def_41 .def_254))) (let ((.def_256 (not .def_255))) (let ((.def_257 (= .def_256 .def_253))) (let ((.def_258 (and .def_257 .def_252))) (let ((.def_259 (not .def_258))) (let ((.def_260 (= .def_259 .def_246))) (let ((.def_261 (not .def_260))) (let ((.def_262 (or .def_261 .def_234))) (let ((.def_263 (or A20 .def_15))) (let ((.def_264 (and A6 A6))) (let ((.def_265 (or .def_264 .def_263))) (let ((.def_266 (and .def_41 .def_242))) (let ((.def_267 (not .def_266))) (let ((.def_268 (and A8 A16))) (let ((.def_269 (and .def_268 .def_267))) (let ((.def_270 (and .def_269 .def_265))) (let ((.def_271 (not .def_270))) (let ((.def_272 (or A9 .def_35))) (let ((.def_273 (not .def_272))) (let ((.def_274 (= A3 .def_43))) (let ((.def_275 (= .def_274 .def_273))) (let ((.def_276 (not .def_275))) (let ((.def_277 (and .def_9 A20))) (let ((.def_278 (= .def_63 A14))) (let ((.def_279 (or .def_278 .def_277))) (let ((.def_280 (or .def_279 .def_276))) (let ((.def_281 (not .def_280))) (let ((.def_282 (and .def_281 .def_271))) (let ((.def_283 (not .def_282))) (let ((.def_284 (= A7 .def_121))) (let ((.def_285 (not .def_284))) (let ((.def_286 (or .def_9 .def_59))) (let ((.def_287 (not .def_286))) (let ((.def_288 (and .def_287 .def_285))) (let ((.def_289 (not .def_288))) (let ((.def_290 (and A10 .def_32))) (let ((.def_291 (or .def_254 A23))) (let ((.def_292 (not .def_291))) (let ((.def_293 (or .def_292 .def_290))) (let ((.def_294 (not .def_293))) (let ((.def_295 (and .def_294 .def_289))) (let ((.def_296 (not .def_295))) (let ((.def_297 (and A24 .def_98))) (let ((.def_298 (not .def_297))) (let ((.def_299 (or .def_0 .def_213))) (let ((.def_300 (= .def_299 .def_298))) (let ((.def_301 (and .def_144 .def_15))) (let ((.def_302 (or A0 .def_242))) (let ((.def_303 (not .def_302))) (let ((.def_304 (or .def_303 .def_301))) (let ((.def_305 (= .def_304 .def_300))) (let ((.def_306 (and .def_305 .def_296))) (let ((.def_307 (not .def_306))) (let ((.def_308 (and .def_307 .def_283))) (let ((.def_309 (= .def_308 .def_262))) (let ((.def_310 (and A20 A23))) (let ((.def_311 (and .def_254 .def_223))) (let ((.def_312 (not .def_311))) (let ((.def_313 (or .def_312 .def_310))) (let ((.def_314 (and .def_0 .def_9))) (let ((.def_315 (and .def_254 A11))) (let ((.def_316 (not .def_315))) (let ((.def_317 (or .def_316 .def_314))) (let ((.def_318 (and .def_317 .def_313))) (let ((.def_319 (not .def_318))) (let ((.def_320 (and A19 A24))) (let ((.def_321 (and A15 .def_32))) (let ((.def_322 (and .def_321 .def_320))) (let ((.def_323 (not .def_322))) (let ((.def_324 (or .def_194 .def_145))) (let ((.def_325 (or A9 A22))) (let ((.def_326 (and .def_325 .def_324))) (let ((.def_327 (and .def_326 .def_323))) (let ((.def_328 (not .def_327))) (let ((.def_329 (or .def_328 .def_319))) (let ((.def_330 (and A14 A3))) (let ((.def_331 (or A20 .def_194))) (let ((.def_332 (not .def_331))) (let ((.def_333 (and .def_332 .def_330))) (let ((.def_334 (or .def_9 .def_194))) (let ((.def_335 (and A21 A17))) (let ((.def_336 (not .def_335))) (let ((.def_337 (and .def_336 .def_334))) (let ((.def_338 (not .def_337))) (let ((.def_339 (and .def_338 .def_333))) (let ((.def_340 (not .def_339))) (let ((.def_341 (and .def_213 A13))) (let ((.def_342 (not .def_341))) (let ((.def_343 (and .def_41 A19))) (let ((.def_344 (and .def_343 .def_342))) (let ((.def_345 (and .def_27 .def_254))) (let ((.def_346 (not .def_345))) (let ((.def_347 (or .def_116 A24))) (let ((.def_348 (or .def_347 .def_346))) (let ((.def_349 (not .def_348))) (let ((.def_350 (and .def_349 .def_344))) (let ((.def_351 (not .def_350))) (let ((.def_352 (and .def_351 .def_340))) (let ((.def_353 (or .def_352 .def_329))) (let ((.def_354 (not .def_353))) (let ((.def_355 (or A9 A10))) (let ((.def_356 (or .def_27 A8))) (let ((.def_357 (and .def_356 .def_355))) (let ((.def_358 (= A2 .def_0))) (let ((.def_359 (and A1 A16))) (let ((.def_360 (or .def_359 .def_358))) (let ((.def_361 (and .def_360 .def_357))) (let ((.def_362 (= .def_25 .def_25))) (let ((.def_363 (and A5 A1))) (let ((.def_364 (not .def_363))) (let ((.def_365 (or .def_364 .def_362))) (let ((.def_366 (not .def_365))) (let ((.def_367 (or .def_145 A0))) (let ((.def_368 (not .def_367))) (let ((.def_369 (and .def_63 A1))) (let ((.def_370 (= .def_369 .def_368))) (let ((.def_371 (or .def_370 .def_366))) (let ((.def_372 (and .def_371 .def_361))) (let ((.def_373 (not .def_372))) (let ((.def_374 (or .def_32 .def_60))) (let ((.def_375 (not .def_374))) (let ((.def_376 (or A24 A0))) (let ((.def_377 (not .def_376))) (let ((.def_378 (and .def_377 .def_375))) (let ((.def_379 (and A12 .def_98))) (let ((.def_380 (= .def_41 A8))) (let ((.def_381 (not .def_380))) (let ((.def_382 (= .def_381 .def_379))) (let ((.def_383 (or .def_382 .def_378))) (let ((.def_384 (and .def_41 A13))) (let ((.def_385 (not .def_384))) (let ((.def_386 (and .def_213 .def_116))) (let ((.def_387 (= .def_386 .def_385))) (let ((.def_388 (not .def_387))) (let ((.def_389 (and .def_0 .def_43))) (let ((.def_390 (not .def_389))) (let ((.def_391 (or .def_390 .def_188))) (let ((.def_392 (or .def_391 .def_388))) (let ((.def_393 (not .def_392))) (let ((.def_394 (or .def_393 .def_383))) (let ((.def_395 (not .def_394))) (let ((.def_396 (and .def_395 .def_373))) (let ((.def_397 (and .def_396 .def_354))) (let ((.def_398 (or .def_397 .def_309))) (let ((.def_399 (and .def_398 .def_211))) .def_399)))))))))))))))))))))))))))))))))))))))))))))))))))))))))))))))))))))))))))))))))))))))))))))))))))))))))))))))))))))))))))))))))))))))))))))))))))))))))))))))))))))))))))))))))))))))))))))))))))))))))))))))))))))))))))))))))))))))))))))))))))))))))))))))))))))))))))))))))))))))))))))))))))))))))))))))))))))))))))))))))))))))))))))))))))))))))))))))))))))))))))))))))))))))))))))))))))))))))))))))))
(check-sat)
